unsat
(forall ((A (_ BitVec 1))
         (B (_ BitVec 1))
         (C (_ BitVec 1))
         (D (_ BitVec 1))
         (E (_ BitVec 1))
         (F (_ BitVec 1))
         (G (_ BitVec 32))
         (H (_ BitVec 1))
         (I (_ BitVec 22))
         (J (_ BitVec 22))
         (K (_ BitVec 32))
         (L (_ BitVec 1))
         (M (_ BitVec 1))
         (N (_ BitVec 1))
         (O (_ BitVec 1))
         (P (_ BitVec 1))
         (Q (_ BitVec 6))
         (R (_ BitVec 6))
         (S (_ BitVec 1))
         (T (_ BitVec 1))
         (U (_ BitVec 1))
         (V (_ BitVec 2))
         (W (_ BitVec 34))
         (X (_ BitVec 1))
         (Y (_ BitVec 1))
         (Z (_ BitVec 2))
         (A1 (_ BitVec 6))
         (B1 (_ BitVec 1))
         (C1 (_ BitVec 1))
         (D1 (_ BitVec 1))
         (E1 (_ BitVec 1))
         (F1 (_ BitVec 1))
         (G1 (_ BitVec 2))
         (H1 (_ BitVec 1))
         (I1 (_ BitVec 1))
         (J1 (_ BitVec 1))
         (K1 (_ BitVec 1))
         (L1 (_ BitVec 1))
         (M1 (_ BitVec 1))
         (N1 (_ BitVec 32))
         (O1 (_ BitVec 2))
         (P1 (_ BitVec 1))
         (Q1 (_ BitVec 1))
         (R1 (_ BitVec 1))
         (S1 (_ BitVec 1))
         (T1 (_ BitVec 1))
         (U1 (_ BitVec 1))
         (V1 (_ BitVec 32))
         (W1 (_ BitVec 1))
         (X1 (_ BitVec 2))
         (Y1 (_ BitVec 1))
         (Z1 (_ BitVec 22))
         (A2 (_ BitVec 1)))
  (! (let ((a!1 (and (or (= ((_ extract 5 1) A1) #b00000)
                         (not (= N #b0))
                         ((_ bit2bool 0) E1)
                         (not (= K1 #b1)))
                     (or (not ((_ bit2bool 33) W)) (= N #b1))
                     (or (not (= K1 #b1)) (not (= S1 #b0)) (= Y #b1))
                     (or (not ((_ bit2bool 0) Y)) (not (= S1 #b1)))
                     (not (= G1 #b01))
                     (or (not (= K1 #b1))
                         (not (= S1 #b0))
                         (= ((_ extract 5 1) A1) #b00000))
                     (or (not (= C1 #b1)) (not (= K1 #b1)))
                     (or (not (= J1 #b0))
                         ((_ bit2bool 0) E1)
                         (not (= K1 #b1))
                         (not (= S1 #b0)))
                     (or (not ((_ bit2bool 32) W)) (= N #b1))
                     (or ((_ bit2bool 0) P1) (= ((_ extract 5 1) A1) #b00000))
                     (or (= ((_ extract 5 1) A1) #b00000)
                         (not (= N #b0))
                         (not (= B1 #b0))
                         (not (= K1 #b1))))))
       (= (INV!slice!1 A
                       B
                       C
                       D
                       E
                       F
                       G
                       H
                       I
                       J
                       K
                       L
                       M
                       N
                       O
                       P
                       Q
                       R
                       S
                       T
                       U
                       V
                       W
                       X
                       Y
                       Z
                       A1
                       B1
                       C1
                       D1
                       E1
                       F1
                       G1
                       H1
                       I1
                       J1
                       K1
                       L1
                       M1
                       N1
                       O1
                       P1
                       Q1
                       R1
                       S1
                       T1
                       U1
                       V1
                       W1
                       X1
                       Y1
                       Z1
                       A2)
          a!1))
     :weight 0))
